(set-info :smt-lib-version 2.6)
(set-logic BV)
(set-info :source | Software ranking function synthesis problems.
These benchmarks stem from an evaluation described in Wintersteiger, Hamadi, de Moura: Efficiently solving quantified bit-vector formulas, FMSD 42(1), 2013.
The software models that were used are from a previous evaluation of termination proving tools described in Cook, Kroening, Ruemmer, Wintersteiger: Ranking Function Synthesis for Bit-Vector Relations, TACAS 2010.
 |)
(set-info :category "industrial")
(set-info :status unsat)
(assert (exists ((c__comm__main__1__lineStatReg_36_C (_ BitVec 8))) (exists ((c__comm__main__1__i_36_C (_ BitVec 32))) (forall ((termination__pre__0__c__comm__main__1__lineStatReg (_ BitVec 8))) (forall ((termination__pre__0__c__comm__main__1__i (_ BitVec 32))) (forall ((c__comm__main__1__i_35_0 (_ BitVec 32))) (forall ((c__main___36_tmp__tmp_36_1 Bool)) (forall ((termination__nondet1 (_ BitVec 32))) (forall ((c__comm__main__1__maxLoops (_ BitVec 32))) (forall ((c__main___36_tmp__return_value_nondet_36_2 (_ BitVec 32))) (forall ((c__comm__main__1__lineStatReg_35_0 (_ BitVec 8))) (forall ((c__comm__main__1__lineStatReg (_ BitVec 8))) (forall ((c__comm__main__1__i (_ BitVec 32))) (=> (and (= termination__pre__0__c__comm__main__1__i c__comm__main__1__i_35_0) (= termination__pre__0__c__comm__main__1__lineStatReg c__comm__main__1__lineStatReg_35_0) (= c__main___36_tmp__return_value_nondet_36_2 termination__nondet1) (= c__comm__main__1__lineStatReg ((_ extract 7 0) c__main___36_tmp__return_value_nondet_36_2)) (= c__main___36_tmp__tmp_36_1 (not (not (= (bvand ((_ zero_extend 24) c__comm__main__1__lineStatReg) (bvshl ((_ zero_extend 24) ((_ extract 7 0) (_ bv1 32))) (_ bv5 32))) (_ bv0 32))))) c__main___36_tmp__tmp_36_1 (= c__comm__main__1__i (bvadd c__comm__main__1__i_35_0 (_ bv1 32))) (ite c__main___36_tmp__tmp_36_1 (not (bvuge c__comm__main__1__i c__comm__main__1__maxLoops)) false)) (bvslt (bvadd ((_ sign_extend 2) (bvmul ((_ sign_extend 33) c__comm__main__1__i_36_C) ((_ zero_extend 33) c__comm__main__1__i))) ((_ sign_extend 50) (bvmul ((_ sign_extend 9) c__comm__main__1__lineStatReg_36_C) ((_ zero_extend 9) c__comm__main__1__lineStatReg)))) (bvadd ((_ sign_extend 2) (bvmul ((_ sign_extend 33) c__comm__main__1__i_36_C) ((_ zero_extend 33) termination__pre__0__c__comm__main__1__i))) ((_ sign_extend 50) (bvmul ((_ sign_extend 9) c__comm__main__1__lineStatReg_36_C) ((_ zero_extend 9) termination__pre__0__c__comm__main__1__lineStatReg)))))) ) ) ) ) ) ) ) ) ) ) ) ))
(check-sat)
(exit)
